51 1 47 85 2 6 33 24 34 42 58 12 11 49 93 35 17 3 19 94 21 83 88 97 70 54 4 28 14 13 31 32 90 64 43 36 37 27 29 39 92 56 15 66 45 5 79 44 22 25 72 52 53 38 55 7 30 87 65 96 23 100 10 63 48 20 16 71 82 61 60 74 76 77 41 26 80 89 8 95 18 86 50 73 81 9 91 78 62 99 98 40 46 67 59 68 